
--- Job Ex2-1Dual.gms Start 09/20/20 19:21:55 24.2.3 r46072 WEX-WEI x86_64/MS Windows
GAMS 24.2.3   Copyright (C) 1987-2014 GAMS Development. All rights reserved
Licensee: Utah Water Research Laboratory (5 user)        G140130:1517AV-GEN
          Utah State University                                      DC7087
          License for teaching and research at degree granting institutions
--- Starting compilation
--- Ex2-1Dual.gms(92) 3 Mb
--- Starting execution: elapsed 0:00:00.003
--- Generating LP model PLANT_PRIMAL
--- Ex2-1Dual.gms(80) 4 Mb
---   4 rows  3 columns  9 non-zeroes
--- Executing CPLEX: elapsed 0:00:00.026

IBM ILOG CPLEX   24.2.3 r46072 Released May 22, 2014 WEI x86_64/MS Windows    
Cplex 12.6.0.0

Reading data...
Starting Cplex...
Space for names approximately 0.00 Mb
Use option 'names no' to turn use of names off
Tried aggregator 1 time.
LP Presolve eliminated 1 rows and 1 columns.
Reduced LP has 3 rows, 2 columns, and 6 nonzeros.
Presolve time = 0.00 sec. (0.00 ticks)

Iteration      Dual Objective            In Variable           Out Variable
     1 sI            0.000000            X(Tomatoes)RES_CONS_PRIMAL(L slack
     2           22333.333333            X(Eggplant)RES_CONS_PRIMAL(W slack
     3           20000.000000RES_CONS_PRIMAL(L slackRES_CONS_PRIMAL(L slack
LP status(1): optimal
Cplex Time: 0.00sec (det. 0.01 ticks)

Optimal solution found.
Objective :       20000.000000

--- Restarting execution
--- Ex2-1Dual.gms(80) 2 Mb
--- Reading solution for model PLANT_PRIMAL
--- Executing after solve: elapsed 0:00:00.097
--- Generating LP model PLANT_DUAL
--- Ex2-1Dual.gms(84) 3 Mb
---   3 rows  4 columns  10 non-zeroes
--- Executing CPLEX: elapsed 0:00:00.172

IBM ILOG CPLEX   24.2.3 r46072 Released May 22, 2014 WEI x86_64/MS Windows    
Cplex 12.6.0.0

Reading data...
Starting Cplex...
Space for names approximately 0.00 Mb
Use option 'names no' to turn use of names off
Tried aggregator 1 time.
LP Presolve eliminated 1 rows and 1 columns.
Reduced LP has 2 rows, 3 columns, and 6 nonzeros.
Presolve time = 0.00 sec. (0.00 ticks)

Iteration      Dual Objective            In Variable           Out Variable
     1           18000.000000                Y(Land)RES_CONS_DUAL(Egg slack
     2           20000.000000               Y(Water)RES_CONS_DUAL(Tom slack
LP status(1): optimal
Cplex Time: 0.00sec (det. 0.01 ticks)

Optimal solution found.
Objective :       20000.000000

--- Restarting execution
--- Ex2-1Dual.gms(84) 2 Mb
--- Reading solution for model PLANT_DUAL
--- Executing after solve: elapsed 0:00:00.234
--- Ex2-1Dual.gms(92) 3 Mb
The system cannot execute the specified program.
*** Status: Normal completion
--- Job Ex2-1Dual.gms Stop 09/20/20 19:22:11 elapsed 0:00:15.432
